0 7 9 1 3 2 5 3 4 8 
7 0 5 6 2 3 8 6 7 9
9 5 0 7 8 2 1 5 9 3
1 6 7 0 1 5 2 7 8 3
3 2 8 1 0 6 7 2 3 4
2 3 2 5 6 0 5 2 6 7
5 8 1 2 7 5 0 3 8 1
3 6 5 7 2 2 3 0 2 5
4 7 9 8 3 6 8 2 0 3
8 9 3 3 4 7 1 5 3 0